NAME: gr17
TYPE: TSP
COMMENT: 17-city problem (Groetschel)
DIMENSION: 17
EDGE_WEIGHT_TYPE: EXPLICIT
EDGE_WEIGHT_FORMAT: LOWER_DIAG_ROW 
EDGE_WEIGHT_SECTION
0																
633	0															
257	0	0														
91	661	228	0													
412	0	169	0	0												
150	488	112	120	267	0											
80	0	196	0	351	63	0										
134	530	154	105	309	34	29	0									
259	0	372	0	0	264	0	249	0								
505	0	0	0	0	360	0	402	495	0							
0	282	110	0	0	208	0	250	352	154	0						
324	0	0	0	0	329	0	314	95	0	435	0					
70	567	191	0	346	83	0	0	0	0	287	254	0				
211	466	74	0	243	0	0	108	326	0	0	391	0	0			
268	420	53	0	0	0	207	165	383	0	0	448	0	57	0		
246	745	472	0	528	0	0	349	202	0	0	157	0	0	483	0	
121	518	0	84	0	0	0	36	236	390	0	0	55	0	153	336	0
EOF
